NAME: concorde91
TYPE: TSP
DIMENSION: 15 
EDGE_WEIGHT_TYPE: EUC_2D
NODE_COORD_SECTION
1 14 64
2 24 29
3 72 93
4 30 15
5 51 97
6 28 0
7 36 71
8 44 63
9 81 78
10 52 90
11 70 51
12 85 75
13 85 93
14 39 9
15 15 50
